c
c Renamed file of cm151a.cnf 
c Variables are renamed according to left2right.ord 
c
c Date: Thu Apr 29 14:49:12 PDT 2004 by (jinbo)
c Host: Linux solution 2.4.18-4smp #1 SMP Thu May 2 18:32:34 EDT 2002 i686 unknown
c
c Copyright (c) 2001 Fadi A. Aloul.
c
p cnf 44 100
-3 -2 0
2 3 0
-2 1 0
-1 2 0
-6 -4 0
-5 -4 0
4 6 5 0
-4 3 0
-3 4 0
-23 -20 0
-21 -20 0
20 23 21 0
-20 19 0
-21 -22 0
31 -22 0
22 21 -31 0
-22 19 0
-23 -24 0
-31 -24 0
24 23 31 0
-24 19 0
-19 20 22 24 0
-27 -26 0
-29 -26 0
26 27 29 0
-26 25 0
-29 -30 0
31 -30 0
30 29 -31 0
-30 25 0
-27 -28 0
-31 -28 0
28 27 31 0
-28 25 0
-25 26 30 28 0
-36 -37 0
-38 -37 0
37 36 38 0
-37 33 0
-38 -34 0
31 -34 0
34 38 -31 0
-34 33 0
-36 -35 0
-31 -35 0
35 36 31 0
-35 33 0
-33 37 34 35 0
-42 -43 0
-44 -43 0
43 42 44 0
-43 39 0
-44 -41 0
31 -41 0
41 44 -31 0
-41 39 0
-42 -40 0
-31 -40 0
40 42 31 0
-40 39 0
-39 43 41 40 0
-15 -14 0
-19 -14 0
14 15 19 0
-14 11 0
15 -17 0
-25 -17 0
17 -15 25 0
-17 11 0
-19 -18 0
-25 -18 0
18 19 25 0
-18 11 0
-11 14 17 18 0
-15 -16 0
-33 -16 0
16 15 33 0
-16 12 0
15 -13 0
-39 -13 0
13 -15 39 0
-13 12 0
-33 -32 0
-39 -32 0
32 33 39 0
-32 12 0
-12 16 13 32 0
-8 -7 0
-11 -7 0
7 8 11 0
-7 6 0
8 -9 0
-12 -9 0
9 -8 12 0
-9 6 0
-11 -10 0
-12 -10 0
10 11 12 0
-10 6 0
-6 7 9 10 0
